60219
110,157,252,294,358,524,561,1048,1073,1127,1388,1480,1499,1544,1588,1595,1801,1817,2114,2545,2574,2584,2587,2617,2672,2761,2793,2818,2819,2847,3150,3255,3257,3363,3421,3457,3487,3679,3721,3746,3763,3889,3949,4154,4219,4264,4302,4727,4798,4809,4933,4982,5149,5190,5236,5311,5312,5602,5625,5723,5754,5772,5816,5890,5955,6111,6119,6166,6301,6303,6404,6546,6680,6695,6710,6756,6789,6834,6977,7035,7140,7209,7249,7360,7472,7496,7523,7607,7611,7667,7926,8088,8099,8310,8542,8544,8669,8841,8931,9494,9591,9713,9802,9850,9851,9922,9980
